solution status: optimal solution found
objective value:                     164128.148142861
d11(0,0)                                            1 	(obj:0)
d11(1,1)                                            1 	(obj:0)
d11(2,3)                                            1 	(obj:0)
d11(2,5)                                            1 	(obj:0)
d11(3,7)                                            1 	(obj:0)
d11(3,9)                                            1 	(obj:0)
d11(3,13)                                           1 	(obj:0)
d11(4,17)                                           1 	(obj:0)
d11(4,27)                                           1 	(obj:0)
d11(5,31)                                           1 	(obj:0)
d11(5,32)                                           1 	(obj:0)
d11(5,33)                                           1 	(obj:0)
d11(5,34)                           0.999999999999987 	(obj:0)
d11(5,35)                                           1 	(obj:0)
d11(5,36)                                           1 	(obj:0)
d11(5,37)                                           1 	(obj:0)
d11(5,39)                                           1 	(obj:0)
d11(5,40)                           0.999999999999987 	(obj:0)
d11(5,41)                                           1 	(obj:0)
d11(5,42)                           0.999999999999987 	(obj:0)
d11(5,43)                                           1 	(obj:0)
d11(5,45)                                           1 	(obj:0)
d11(5,46)                                           1 	(obj:0)
d11(5,47)                                           1 	(obj:0)
d11(5,48)                                           1 	(obj:0)
d11(5,49)                                           1 	(obj:0)
d11(5,50)                                           1 	(obj:0)
d11(5,51)                                           1 	(obj:0)
d11(5,52)                                           1 	(obj:0)
d11(5,53)                                           1 	(obj:0)
d11(5,54)                                           1 	(obj:0)
d11(5,55)                                           1 	(obj:0)
d11(5,57)                                           1 	(obj:0)
d11(5,58)                                           1 	(obj:0)
d11(5,59)                                           1 	(obj:0)
d11(5,60)                                           1 	(obj:0)
d11(5,61)                                           1 	(obj:0)
d12(2,4)                                            1 	(obj:0)
d12(2,6)                                            1 	(obj:0)
d12(3,8)                                            1 	(obj:0)
d12(3,10)                                           1 	(obj:0)
d12(3,12)                                           1 	(obj:0)
d12(3,14)                                           1 	(obj:0)
d12(4,16)                                           1 	(obj:0)
d12(4,18)                                           1 	(obj:0)
d12(4,20)                                           1 	(obj:0)
d12(4,22)                                           1 	(obj:0)
d12(4,24)                                           1 	(obj:0)
d12(4,26)                                           1 	(obj:0)
d12(4,28)                                           1 	(obj:0)
d12(4,30)                                           1 	(obj:0)
d21(2,3)                                            1 	(obj:0)
d21(3,7)                                            1 	(obj:0)
d21(4,15)                                           1 	(obj:0)
d21(5,31)                                           1 	(obj:0)
d21(5,32)                                           1 	(obj:0)
d21(5,33)                                           1 	(obj:0)
d21(5,34)                                           1 	(obj:0)
d21(5,35)                                           1 	(obj:0)
d21(5,36)                                           1 	(obj:0)
d21(5,37)                                           1 	(obj:0)
d21(5,39)                                           1 	(obj:0)
d21(5,40)                                           1 	(obj:0)
d21(5,41)                                           1 	(obj:0)
d21(5,43)                                           1 	(obj:0)
d21(5,47)                                           1 	(obj:0)
d21(5,49)                                           1 	(obj:0)
d21(5,51)                                           1 	(obj:0)
d21(5,55)                                           1 	(obj:0)
STE(1,1)                             4137.75010111115 	(obj:0)
STE(0,0)                                         6300 	(obj:0)
STE(1,2)                                         5796 	(obj:0)
STE(2,3)                             3633.75010109444 	(obj:0)
STE(2,4)                             4949.96418697274 	(obj:0)
STE(2,5)                             5291.99999998328 	(obj:0)
STE(2,6)                             6608.21408586159 	(obj:0)
STE(3,7)                             3129.75010109444 	(obj:0)
STE(3,8)                             4445.96418697094 	(obj:0)
STE(3,9)                             4445.96418697274 	(obj:0)
STE(3,10)                            5762.17827284926 	(obj:0)
STE(3,11)                                        4788 	(obj:0)
STE(3,12)                            6104.21408585979 	(obj:0)
STE(3,13)                            6104.21408586159 	(obj:0)
STE(3,14)                             7420.4281717381 	(obj:0)
STE(4,15)                            2625.75010109444 	(obj:0)
STE(4,16)                            3941.96418697094 	(obj:0)
STE(4,17)                            3941.96418697094 	(obj:0)
STE(4,18)                            5258.17827284745 	(obj:0)
STE(4,19)                            3941.96418697274 	(obj:0)
STE(4,20)                            5258.17827284925 	(obj:0)
STE(4,21)                            5258.17827284926 	(obj:0)
STE(4,22)                            6574.39235872577 	(obj:0)
STE(4,23)                                        4284 	(obj:0)
STE(4,24)                            5600.21408587651 	(obj:0)
STE(4,25)                            5600.21408585979 	(obj:0)
STE(4,26)                             6916.4281717363 	(obj:0)
STE(4,27)                            5600.21408586159 	(obj:0)
STE(4,28)                             6916.4281717381 	(obj:0)
STE(4,29)                             6916.4281717381 	(obj:0)
STE(4,30)                             8232.6422576146 	(obj:0)
STE(5,31)                            463.500202191519 	(obj:0)
STE(5,32)                            2121.75010108034 	(obj:0)
STE(5,33)                            1779.71428806802 	(obj:0)
STE(5,34)                            3437.96418697094 	(obj:0)
STE(5,35)                            1779.71428806803 	(obj:0)
STE(5,36)                            3437.96418695684 	(obj:0)
STE(5,37)                            3095.92837394454 	(obj:0)
STE(5,38)                            4754.17827284745 	(obj:0)
STE(5,39)                            1779.71428806983 	(obj:0)
STE(5,40)                            3437.96418697274 	(obj:0)
STE(5,41)                            3095.92837394633 	(obj:0)
STE(5,42)                            4754.17827284925 	(obj:0)
STE(5,43)                            3095.92837394634 	(obj:0)
STE(5,44)                            4754.17827284926 	(obj:0)
STE(5,45)                            4412.14245982285 	(obj:0)
STE(5,46)                            6070.39235871167 	(obj:0)
STE(5,47)                            2121.75010109708 	(obj:0)
STE(5,48)                            3779.99999998593 	(obj:0)
STE(5,49)                             3437.9641869736 	(obj:0)
STE(5,50)                            5096.21408586241 	(obj:0)
STE(5,51)                            3437.96418695687 	(obj:0)
STE(5,52)                            5096.21408585979 	(obj:0)
STE(5,53)                            4754.17827283338 	(obj:0)
STE(5,54)                             6412.4281717222 	(obj:0)
STE(5,55)                            3437.96418695867 	(obj:0)
STE(5,56)                            5096.21408586159 	(obj:0)
STE(5,57)                            4754.17827283518 	(obj:0)
STE(5,58)                              6412.428171724 	(obj:0)
STE(5,59)                            4754.17827283518 	(obj:0)
STE(5,60)                              6412.428171724 	(obj:0)
STE(5,61)                            6070.39235871169 	(obj:0)
STE(5,62)                             7728.6422576146 	(obj:0)
y1(5,39)                             1492.42490901263 	(obj:0)
y1(5,41)                             1492.42490901263 	(obj:0)
y1(5,43)                             1492.42490901263 	(obj:0)
y1(5,45)                             1492.42490901263 	(obj:0)
y1(5,46)                         1.26892700791359e-008 	(obj:0)
y1(5,47)                             1492.42490901263 	(obj:0)
y1(5,48)                         1.26654049381614e-008 	(obj:0)
y1(5,49)                             1492.42490901263 	(obj:0)
y1(5,50)                         1.26892700791359e-008 	(obj:0)
y1(5,51)                             1492.42490901263 	(obj:0)
y1(5,53)                             1492.42490901263 	(obj:0)
y1(5,54)                         1.26892700791359e-008 	(obj:0)
y1(5,55)                             1492.42490901263 	(obj:0)
y1(5,57)                             1492.42490901263 	(obj:0)
y1(5,58)                         1.26892700791359e-008 	(obj:0)
y1(5,59)                             1492.42490901263 	(obj:0)
y1(5,60)                         1.26892700791359e-008 	(obj:0)
y1(5,61)                             1492.42490901263 	(obj:0)
AVE(1)                                   3216.9117036 	(obj:0)
WB(2)                                    3366.1541945 	(obj:0)
AVE(2)                                   3366.1541945 	(obj:0)
WB(3)                                 841.98674662449 	(obj:0)
AVE(3)                                   3515.3966854 	(obj:0)
WB(4)                                3515.39406545826 	(obj:0)
AVE(4)                               3515.39406545826 	(obj:0)
WB(5)                                3167.15385942032 	(obj:0)
AVE(5)                               3167.15385943327 	(obj:0)
WG(1)                                    3216.9117036 	(obj:10)
WG(3)                                2673.40993877551 	(obj:10)
WG(5)                            1.29482347746285e-008 	(obj:10)
BG(1)                                979.380795379592 	(obj:10)
BG(2)                                 2673.4099387909 	(obj:10)
BG(4)                                2673.40993877551 	(obj:10)
BG(5)                                4196.29249897959 	(obj:10)
y1(1,1)                              1492.42490899996 	(obj:0)
y1(2,3)                          1.5048044588184e-008 	(obj:0)
y1(2,5)                          1.50478444993496e-008 	(obj:0)
y1(3,11)                         -1.50484265759587e-008 	(obj:0)
y1(5,31)                             1492.42490901263 	(obj:0)
y1(5,32)                         1.26892700791359e-008 	(obj:0)
y1(5,33)                             1492.42490901263 	(obj:0)
y1(5,35)                             1492.42490901263 	(obj:0)
y1(5,36)                         1.26892700791359e-008 	(obj:0)
y1(5,37)                             1492.42490901263 	(obj:0)
y2(2,4)                              1385.48851143325 	(obj:0)
y2(2,6)                              1385.48851143325 	(obj:0)
y2(3,8)                              1385.48851144895 	(obj:0)
y2(3,10)                             1385.48851144896 	(obj:0)
y2(3,12)                             1385.48851144895 	(obj:0)
y2(3,14)                             1385.48851144895 	(obj:0)
y2(4,16)                             1385.48851144895 	(obj:0)
y2(4,18)                             1385.48851144896 	(obj:0)
y2(4,20)                             1385.48851144895 	(obj:0)
y2(4,22)                             1385.48851144896 	(obj:0)
y2(4,24)                             1385.48851144896 	(obj:0)
y2(4,26)                             1385.48851144896 	(obj:0)
y2(4,28)                             1385.48851144896 	(obj:0)
y2(4,30)                             1385.48851144895 	(obj:0)
